c User generated cnf file
p cnf 13 34
7 10 -12 0 
1 -1 10 0 
1 8 -13 0 
5 -9 10 0 
11 3 -11 0 
11 -8 5 0 
11 11 -10 0 
4 -6 12 0 
1 -11 13 0 
11 -13 5 0 
3 -12 2 0 
7 9 -5 0 
10 -8 6 0 
13 -3 6 0 
11 12 -2 0 
6 3 -2 0 
11 2 -5 0 
6 -11 5 0 
10 -5 13 0 
13 -6 11 0 
10 -11 3 0 
5 1 -6 0 
2 -5 5 0 
10 2 -3 0 
13 1 -10 0 
6 -8 1 0 
13 -9 4 0 
12 -4 5 0 
3 -4 7 0 
3 13 -10 0 
4 2 -9 0 
8 -4 6 0 
7 8 -12 0 
7 -8 7 0 
